c turning on binary mode checking
c parsing input formula with 202048 variables and 780985 clauses
c finished parsing, read 38282 bytes from proof file
c detected empty clause; start verification via backward checking
c 774 of 780985 clauses in core                            
c 40 of 7321 lemmas in core using 6593 resolution steps
c 0 RAT lemmas in core; 1 redundant literals in core lemmas
s VERIFIED
c verification time: 0.746 seconds
